succeed=True
[CUDA] cuda: usage: 5.74 GB
0 :  {link #0 : 1}, {link #1 : 2}, {link #2 : 3},
1 :  {link #0 : 2}, {link #1 : 3}, {link #2 : 0},
2 :  {link #0 : 3}, {link #1 : 0}, {link #2 : 1},
3 :  {link #0 : 0}, {link #1 : 1}, {link #2 : 2},
0 :  {link #0 : 1}, {link #1 : 2}, {link #2 : 3},
1 :  {link #0 : 2}, {link #1 : 3}, {link #2 : 0},
2 :  {link #0 : 3}, {link #1 : 0}, {link #2 : 1},
3 :  {link #0 : 0}, {link #1 : 1}, {link #2 : 2},
0 :  {link #0 : 1}, {link #1 : 2}, {link #2 : 3},
1 :  {link #0 : 2}, {link #1 : 3}, {link #2 : 0},
2 :  {link #0 : 3}, {link #1 : 0}, {link #2 : 1},
3 :  {link #0 : 0}, {link #1 : 1}, {link #2 : 2},
0 : local 80, cpu 0 {link #0 : g1 0}, {link #1 : g2 0}, {link #2 : g3 0},
1 : local 80, cpu 0 {link #0 : g2 0}, {link #1 : g3 0}, {link #2 : g0 0},
2 : local 80, cpu 0 {link #0 : g3 0}, {link #1 : g0 0}, {link #2 : g1 0},
3 : local 80, cpu 0 {link #0 : g0 0}, {link #1 : g1 0}, {link #2 : g2 0},
0 : local 80, cpu 0 {link #0 : g1 0}, {link #1 : g2 0}, {link #2 : g3 0},
1 : local 80, cpu 0 {link #0 : g2 0}, {link #1 : g3 0}, {link #2 : g0 0},
2 : local 80, cpu 0 {link #0 : g3 0}, {link #1 : g0 0}, {link #2 : g1 0},
3 : local 80, cpu 0 {link #0 : g0 0}, {link #1 : g1 0}, {link #2 : g2 0},
0 : local 80, cpu 0 {link #0 : g1 0}, {link #1 : g2 0}, {link #2 : g3 0},
1 : local 80, cpu 0 {link #0 : g2 0}, {link #1 : g3 0}, {link #2 : g0 0},
2 : local 80, cpu 0 {link #0 : g3 0}, {link #1 : g0 0}, {link #2 : g1 0},
3 : local 80, cpu 0 {link #0 : g0 0}, {link #1 : g1 0}, {link #2 : g2 0},
0 :  {link #0 : 1}, {link #1 : 2}, {link #2 : 3},
1 :  {link #0 : 2}, {link #1 : 3}, {link #2 : 0},
2 :  {link #0 : 3}, {link #1 : 0}, {link #2 : 1},
3 :  {link #0 : 0}, {link #1 : 1}, {link #2 : 2},
0 : local 80, cpu 0 {link #0 : g1 0}, {link #1 : g2 0}, {link #2 : g3 0},
1 : local 80, cpu 0 {link #0 : g2 0}, {link #1 : g3 0}, {link #2 : g0 0},
2 : local 80, cpu 0 {link #0 : g3 0}, {link #1 : g0 0}, {link #2 : g1 0},
3 : local 80, cpu 0 {link #0 : g0 0}, {link #1 : g1 0}, {link #2 : g2 0},
Set parameter WLSAccessID
Set parameter WLSSecret
Set parameter LicenseID
Set parameter TimeLimit to value 200
Set parameter MIPGap to value 0.05
Set parameter LogFile to value "cppsolver.log"
Set parameter Threads to value 40
Academic license - for non-commercial use only - registered to xiaoniu.sxn@sjtu.edu.cn
Gurobi Optimizer version 9.5.1 build v9.5.1rc2 (linux64)
Thread count: 40 physical cores, 80 logical processors, using up to 40 threads
Academic license - for non-commercial use only - registered to xiaoniu.sxn@sjtu.edu.cn
Optimize a model with 7980 rows, 2606 columns and 21444 nonzeros
Model fingerprint: 0x10dec050
Variable types: 5 continuous, 2601 integer (2601 binary)
Coefficient statistics:
  Matrix range     [2e-09, 6e+02]
  Objective range  [1e+00, 1e+00]
  Bounds range     [1e+00, 1e+00]
  RHS range        [6e-01, 1e+02]
Found heuristic solution: objective 2.000000e+09
Presolve removed 5992 rows and 498 columns
Presolve time: 0.02s
Presolved: 1988 rows, 2108 columns, 5952 nonzeros
Found heuristic solution: objective 5796.3564239
Variable types: 0 continuous, 2108 integer (2108 binary)

Root relaxation: objective 4.130614e+03, 1616 iterations, 0.01 seconds (0.01 work units)

    Nodes    |    Current Node    |     Objective Bounds      |     Work
 Expl Unexpl |  Obj  Depth IntInf | Incumbent    BestBd   Gap | It/Node Time

     0     0 4130.61381    0   29 5796.35642 4130.61381  28.7%     -    0s
H    0     0                    4247.0869281 4130.61381  2.74%     -    0s

Explored 1 nodes (2235 simplex iterations) in 0.05 seconds (0.03 work units)
Thread count was 40 (of 80 available processors)

Solution count 3: 4247.09 5796.36 2e+09 

Optimal solution found (tolerance 5.00e-02)
Best objective 4.247086928069e+03, best bound 4.130613805029e+03, gap 2.7424%
coll_cache:optimal_local_rate=0.0798759,0.104613,0.0991826,0.110292,
coll_cache:optimal_remote_rate=0.272966,0.24823,0.25366,0.24255,
coll_cache:optimal_cpu_rate=0.647158,0.647158,0.647158,0.647158,
z=4247.09
test_result:init:feat_nbytes=375030526464
test_result:init:cache_nbytes=2625212928
test_result:init:feat_nbytes=375030526464
test_result:init:cache_nbytes=2625212928
test_result:init:feat_nbytes=375030526464
test_result:init:cache_nbytes=2625212928
test_result:init:feat_nbytes=375030526464
test_result:init:cache_nbytes=2625212928
    [Step(average) Profiler Level 1 E3 S999]
        L1  sample           0.001434 | send           0.000000
        L1  recv             0.000000 | copy           0.020512 | convert time 0.000000 | train  0.010416
        L1  feature nbytes  357.42 MB | label nbytes 0.00 Bytes
        L1  id nbytes      0.00 Bytes | graph nbytes 0.00 Bytes
        L1  miss nbytes    0.00 Bytes | remote nbytes 0.00 Bytes
        L1  num nodes               0 | num samples           0
        L1  seq duration     0.000000 | refresh duration   0.000000
    [Step(average) Profiler Level 2 E3 S999]
        L2  shuffle     0.000000 | core sample  0.000000 | id remap        0.000000
        L2  graph copy  0.000000 | id copy      0.000000 | cache feat copy 0.020512
        L2  last layer sample time 0.000000 | size 0.000000
    [Step(average) Profiler Level 3 E3 S999]
        L3  khop sample coo  0.000000 | khop sort coo      0.000000 | khop count edge     0.000000 | khop compact edge 0.000000
        L3  walk sample coo  0.000000 | walk topk total    0.000000 | walk topk step1     0.000000 | walk topk step2   0.000000
        L3  walk topk step3  0.000000 | walk topk step4    0.000000 | walk topk step5     0.000000
        L3  walk topk step6  0.000000 | walk topk step7    0.000000
        L3  remap unique     0.000000 | remap populate     0.000000 | remap mapnode       0.000000 | remap mapedge     0.000000
        L3  cache get_index  0.000215 | cache copy_index   0.000000 | cache extract_miss  0.000000
        L3  cache copy_miss  0.000000 | cache combine_miss 0.000000 | cache combine cache 0.020261 | cache combine remote 0.000000
        L3  label extract  0.000000
    [Profiler Level Percentiles E3 S999]
        p50.00_tail_logl2featcopy=0.021411
        p90.00_tail_logl2featcopy=0.021849
        p95.00_tail_logl2featcopy=0.021962
        p99.00_tail_logl2featcopy=0.022179
        p99.90_tail_logl2featcopy=0.024554
[CUDA] cuda: usage: 9.61 GB
config:eval_tsp="2023-04-14 18:44:53"
config:num_worker=4
config:num_intra_size=4
config:root_dir=/nvme/songxiaoniu/graph-learning/wholegraph
config:graph_name=mag240m-homo
config:epochs=4
config:batchsize=500
config:skip_epoch=2
config:local_step=250
config:presc_epoch=2
config:neighbors=10,25
config:hiddensize=256
config:num_layer=2
config:model=sage
config:framework=dgl
config:dataloaderworkers=0
config:dropout=0.5
config:lr=0.003
config:use_nccl=False
config:use_amp=True
config:use_collcache=True
config:cache_percentage=0.006
config:cache_policy=coll_cache_asymm_link
config:omp_thread_num=40
config:unsupervised=True
config:classnum=153
config:global_barrier=<multiprocessing.synchronize.Barrier object at 0x7fe465298460>
config:worker_id=0
creating_intra_node_communicator root=0, local_size=4, world_size=4
Rank=0, Graph loaded.
!!!!dist_homo_graph enumerate latency per epoch: 0.009284, per step: 0.000037
epoch=4 total_steps=1000
presamping
presamping takes 4.301543712615967
start training...
[Epoch 0], time=9.321233034133911, loss=0.6931472420692444
[Epoch 1], time=8.180236101150513, loss=0.6931472420692444
[Epoch 2], time=8.094232320785522, loss=0.6931472420692444
[Epoch 3], time=8.040424585342407, loss=0.6931472420692444
|===========================================================================|
|                  PyTorch CUDA memory summary, device ID 0                 |
|---------------------------------------------------------------------------|
|            CUDA OOMs: 0            |        cudaMalloc retries: 0         |
|===========================================================================|
|        Metric         | Cur Usage  | Peak Usage | Tot Alloc  | Tot Freed  |
|---------------------------------------------------------------------------|
| Allocated memory      |   32970 KB |  197422 KB |  517330 MB |  517298 MB |
|       from large pool |   20253 KB |  187829 KB |  490447 MB |  490427 MB |
|       from small pool |   12717 KB |   16515 KB |   26883 MB |   26870 MB |
|---------------------------------------------------------------------------|
| Active memory         |   32970 KB |  197422 KB |  517330 MB |  517298 MB |
|       from large pool |   20253 KB |  187829 KB |  490447 MB |  490427 MB |
|       from small pool |   12717 KB |   16515 KB |   26883 MB |   26870 MB |
|---------------------------------------------------------------------------|
| GPU reserved memory   |  632832 KB |  632832 KB |  632832 KB |       0 B  |
|       from large pool |  612352 KB |  612352 KB |  612352 KB |       0 B  |
|       from small pool |   20480 KB |   20480 KB |   20480 KB |       0 B  |
|---------------------------------------------------------------------------|
| Non-releasable memory |  163637 KB |  420234 KB |  481916 MB |  481756 MB |
|       from large pool |  159970 KB |  414420 KB |  452611 MB |  452455 MB |
|       from small pool |    3667 KB |    8250 KB |   29304 MB |   29300 MB |
|---------------------------------------------------------------------------|
| Allocations           |      62    |      81    |  213809    |  213747    |
|       from large pool |      12    |      24    |   52768    |   52756    |
|       from small pool |      50    |      64    |  161041    |  160991    |
|---------------------------------------------------------------------------|
| Active allocs         |      62    |      81    |  213809    |  213747    |
|       from large pool |      12    |      24    |   52768    |   52756    |
|       from small pool |      50    |      64    |  161041    |  160991    |
|---------------------------------------------------------------------------|
| GPU reserved segments |      19    |      19    |      19    |       0    |
|       from large pool |       9    |       9    |       9    |       0    |
|       from small pool |      10    |      10    |      10    |       0    |
|---------------------------------------------------------------------------|
| Non-releasable allocs |      27    |      37    |   89716    |   89689    |
|       from large pool |       6    |      13    |   33576    |   33570    |
|       from small pool |      21    |      30    |   56140    |   56119    |
|---------------------------------------------------------------------------|
| Oversize allocations  |       0    |       0    |       0    |       0    |
|---------------------------------------------------------------------------|
| Oversize GPU segments |       0    |       0    |       0    |       0    |
|===========================================================================|

[TRAIN_TIME] train time is 33.638947 seconds
[EPOCH_TIME] 8.409737 seconds, maybe large due to not enough epoch skipped.
[EPOCH_TIME] 8.067455 seconds
Rank=2, Graph loaded.
!!!!dist_homo_graph enumerate latency per epoch: 0.010767, per step: 0.000043
presamping
presamping takes 5.335340261459351
Rank=3, Graph loaded.
!!!!dist_homo_graph enumerate latency per epoch: 0.009404, per step: 0.000038
presamping
presamping takes 4.292515754699707
Rank=1, Graph loaded.
!!!!dist_homo_graph enumerate latency per epoch: 0.013985, per step: 0.000056
presamping
presamping takes 5.844457387924194

